# Objective value = 6
x0,1_1 1
x0,1_12 0
x0,1_17 0
x0,1_18 0
x0,1_21 0
x0,1_22 0
x0,1_30 0
x0,1_35 0
x0,1_38 0
x0,1_39 0
x0,1_47 0
x0,1_56 0
x0,1_57 0
x0,1_68 0
x0,1_69 0
x0,2_1 0
x0,2_12 0
x0,2_17 0
x0,2_18 0
x0,2_21 0
x0,2_22 1
x0,2_30 0
x0,2_35 0
x0,2_38 0
x0,2_39 0
x0,2_47 0
x0,2_56 0
x0,2_57 0
x0,2_68 0
x0,2_69 0
x0,3_1 0
x0,3_12 0
x0,3_17 0
x0,3_18 0
x0,3_21 0
x0,3_22 0
x0,3_30 0
x0,3_35 0
x0,3_38 0
x0,3_39 1
x0,3_47 0
x0,3_56 0
x0,3_57 0
x0,3_68 0
x0,3_69 0
x0,4_1 0
x0,4_12 0
x0,4_17 0
x0,4_18 0
x0,4_21 0
x0,4_22 0
x0,4_30 0
x0,4_35 0
x0,4_38 0
x0,4_39 0
x0,4_47 0
x0,4_56 0
x0,4_57 1
x0,4_68 0
x0,4_69 0
x0,5_1 0
x0,5_12 0
x0,5_17 0
x0,5_18 0
x0,5_21 0
x0,5_22 0
x0,5_30 0
x0,5_35 0
x0,5_38 0
x0,5_39 0
x0,5_47 0
x0,5_56 0
x0,5_57 0
x0,5_68 0
x0,5_69 1
x0,6_1 0
x0,6_12 0
x0,6_17 0
x0,6_18 0
x0,6_21 0
x0,6_22 0
x0,6_30 0
x0,6_35 0
x0,6_38 0
x0,6_39 0
x0,6_47 0
x0,6_56 0
x0,6_57 0
x0,6_68 0
x0,6_69 0
x0,7_1 0
x0,7_12 0
x0,7_17 0
x0,7_18 0
x0,7_21 0
x0,7_22 0
x0,7_30 0
x0,7_35 0
x0,7_38 0
x0,7_39 0
x0,7_47 0
x0,7_56 0
x0,7_57 0
x0,7_68 0
x0,7_69 0
x0,8_1 0
x0,8_12 0
x0,8_17 0
x0,8_18 0
x0,8_21 0
x0,8_22 0
x0,8_30 0
x0,8_35 0
x0,8_38 0
x0,8_39 0
x0,8_47 0
x0,8_56 0
x0,8_57 0
x0,8_68 0
x0,8_69 0
x0,9_1 0
x0,9_12 0
x0,9_17 0
x0,9_18 0
x0,9_21 0
x0,9_22 0
x0,9_30 0
x0,9_35 0
x0,9_38 0
x0,9_39 0
x0,9_47 0
x0,9_56 0
x0,9_57 0
x0,9_68 0
x0,9_69 0
x0,10_1 0
x0,10_12 0
x0,10_17 0
x0,10_18 0
x0,10_21 0
x0,10_22 0
x0,10_30 0
x0,10_35 0
x0,10_38 0
x0,10_39 0
x0,10_47 0
x0,10_56 0
x0,10_57 0
x0,10_68 0
x0,10_69 0
x0,11_1 0
x0,11_12 0
x0,11_17 0
x0,11_18 0
x0,11_21 0
x0,11_22 0
x0,11_30 0
x0,11_35 0
x0,11_38 0
x0,11_39 0
x0,11_47 0
x0,11_56 0
x0,11_57 0
x0,11_68 0
x0,11_69 0
x0,12_1 0
x0,12_12 0
x0,12_17 0
x0,12_18 0
x0,12_21 0
x0,12_22 0
x0,12_30 0
x0,12_35 0
x0,12_38 0
x0,12_39 0
x0,12_47 0
x0,12_56 0
x0,12_57 0
x0,12_68 0
x0,12_69 0
x0,13_1 0
x0,13_12 0
x0,13_17 0
x0,13_18 0
x0,13_21 0
x0,13_22 0
x0,13_30 0
x0,13_35 0
x0,13_38 0
x0,13_39 0
x0,13_47 0
x0,13_56 0
x0,13_57 0
x0,13_68 0
x0,13_69 0
x0,14_1 0
x0,14_12 0
x0,14_17 0
x0,14_18 0
x0,14_21 0
x0,14_22 0
x0,14_30 0
x0,14_35 0
x0,14_38 0
x0,14_39 0
x0,14_47 0
x0,14_56 0
x0,14_57 0
x0,14_68 0
x0,14_69 0
x0,15_1 0
x0,15_12 0
x0,15_17 0
x0,15_18 0
x0,15_21 0
x0,15_22 0
x0,15_30 0
x0,15_35 0
x0,15_38 0
x0,15_39 0
x0,15_47 0
x0,15_56 0
x0,15_57 0
x0,15_68 0
x0,15_69 0
x1,2_1 0
x1,2_12 0
x1,2_17 0
x1,2_18 0
x1,2_21 1
x1,2_22 0
x1,2_30 0
x1,2_35 0
x1,2_38 0
x1,2_39 0
x1,2_47 0
x1,2_56 0
x1,2_57 0
x1,2_68 0
x1,2_69 0
x1,3_1 0
x1,3_12 0
x1,3_17 0
x1,3_18 0
x1,3_21 0
x1,3_22 0
x1,3_30 0
x1,3_35 0
x1,3_38 1
x1,3_39 0
x1,3_47 0
x1,3_56 0
x1,3_57 0
x1,3_68 0
x1,3_69 0
x1,4_1 0
x1,4_12 0
x1,4_17 0
x1,4_18 0
x1,4_21 0
x1,4_22 0
x1,4_30 0
x1,4_35 0
x1,4_38 0
x1,4_39 0
x1,4_47 0
x1,4_56 1
x1,4_57 0
x1,4_68 0
x1,4_69 0
x1,5_1 0
x1,5_12 0
x1,5_17 0
x1,5_18 0
x1,5_21 0
x1,5_22 0
x1,5_30 0
x1,5_35 0
x1,5_38 0
x1,5_39 0
x1,5_47 0
x1,5_56 0
x1,5_57 0
x1,5_68 1
x1,5_69 0
x1,6_1 0
x1,6_12 0
x1,6_17 0
x1,6_18 0
x1,6_21 0
x1,6_22 0
x1,6_30 0
x1,6_35 0
x1,6_38 0
x1,6_39 0
x1,6_47 0
x1,6_56 0
x1,6_57 0
x1,6_68 0
x1,6_69 0
x1,7_1 0
x1,7_12 0
x1,7_17 0
x1,7_18 0
x1,7_21 0
x1,7_22 0
x1,7_30 0
x1,7_35 0
x1,7_38 0
x1,7_39 0
x1,7_47 0
x1,7_56 0
x1,7_57 0
x1,7_68 0
x1,7_69 0
x1,8_1 0
x1,8_12 0
x1,8_17 0
x1,8_18 0
x1,8_21 0
x1,8_22 0
x1,8_30 0
x1,8_35 0
x1,8_38 0
x1,8_39 0
x1,8_47 0
x1,8_56 0
x1,8_57 0
x1,8_68 0
x1,8_69 0
x1,9_1 0
x1,9_12 0
x1,9_17 0
x1,9_18 0
x1,9_21 0
x1,9_22 0
x1,9_30 0
x1,9_35 0
x1,9_38 0
x1,9_39 0
x1,9_47 0
x1,9_56 0
x1,9_57 0
x1,9_68 0
x1,9_69 0
x1,10_1 0
x1,10_12 0
x1,10_17 0
x1,10_18 0
x1,10_21 0
x1,10_22 0
x1,10_30 0
x1,10_35 0
x1,10_38 0
x1,10_39 0
x1,10_47 0
x1,10_56 0
x1,10_57 0
x1,10_68 0
x1,10_69 0
x1,11_1 0
x1,11_12 0
x1,11_17 0
x1,11_18 0
x1,11_21 0
x1,11_22 0
x1,11_30 0
x1,11_35 0
x1,11_38 0
x1,11_39 0
x1,11_47 0
x1,11_56 0
x1,11_57 0
x1,11_68 0
x1,11_69 0
x1,12_1 0
x1,12_12 0
x1,12_17 0
x1,12_18 0
x1,12_21 0
x1,12_22 0
x1,12_30 0
x1,12_35 0
x1,12_38 0
x1,12_39 0
x1,12_47 0
x1,12_56 0
x1,12_57 0
x1,12_68 0
x1,12_69 0
x1,13_1 0
x1,13_12 0
x1,13_17 0
x1,13_18 0
x1,13_21 0
x1,13_22 0
x1,13_30 0
x1,13_35 0
x1,13_38 0
x1,13_39 0
x1,13_47 0
x1,13_56 0
x1,13_57 0
x1,13_68 0
x1,13_69 0
x1,14_1 0
x1,14_12 0
x1,14_17 0
x1,14_18 0
x1,14_21 0
x1,14_22 0
x1,14_30 0
x1,14_35 0
x1,14_38 0
x1,14_39 0
x1,14_47 0
x1,14_56 0
x1,14_57 0
x1,14_68 0
x1,14_69 0
x1,15_1 0
x1,15_12 0
x1,15_17 0
x1,15_18 0
x1,15_21 0
x1,15_22 0
x1,15_30 0
x1,15_35 0
x1,15_38 0
x1,15_39 0
x1,15_47 0
x1,15_56 0
x1,15_57 0
x1,15_68 0
x1,15_69 0
x2,3_1 0
x2,3_12 0
x2,3_17 1
x2,3_18 0
x2,3_21 0
x2,3_22 0
x2,3_30 0
x2,3_35 0
x2,3_38 0
x2,3_39 0
x2,3_47 0
x2,3_56 0
x2,3_57 0
x2,3_68 0
x2,3_69 0
x2,4_1 0
x2,4_12 0
x2,4_17 0
x2,4_18 0
x2,4_21 0
x2,4_22 0
x2,4_30 0
x2,4_35 1
x2,4_38 0
x2,4_39 0
x2,4_47 0
x2,4_56 0
x2,4_57 0
x2,4_68 0
x2,4_69 0
x2,5_1 0
x2,5_12 0
x2,5_17 0
x2,5_18 0
x2,5_21 0
x2,5_22 0
x2,5_30 0
x2,5_35 0
x2,5_38 0
x2,5_39 0
x2,5_47 1
x2,5_56 0
x2,5_57 0
x2,5_68 0
x2,5_69 0
x2,6_1 0
x2,6_12 0
x2,6_17 0
x2,6_18 0
x2,6_21 0
x2,6_22 0
x2,6_30 0
x2,6_35 0
x2,6_38 0
x2,6_39 0
x2,6_47 0
x2,6_56 0
x2,6_57 0
x2,6_68 0
x2,6_69 0
x2,7_1 0
x2,7_12 0
x2,7_17 0
x2,7_18 0
x2,7_21 0
x2,7_22 0
x2,7_30 0
x2,7_35 0
x2,7_38 0
x2,7_39 0
x2,7_47 0
x2,7_56 0
x2,7_57 0
x2,7_68 0
x2,7_69 0
x2,8_1 0
x2,8_12 0
x2,8_17 0
x2,8_18 0
x2,8_21 0
x2,8_22 0
x2,8_30 0
x2,8_35 0
x2,8_38 0
x2,8_39 0
x2,8_47 0
x2,8_56 0
x2,8_57 0
x2,8_68 0
x2,8_69 0
x2,9_1 0
x2,9_12 0
x2,9_17 0
x2,9_18 0
x2,9_21 0
x2,9_22 0
x2,9_30 0
x2,9_35 0
x2,9_38 0
x2,9_39 0
x2,9_47 0
x2,9_56 0
x2,9_57 0
x2,9_68 0
x2,9_69 0
x2,10_1 0
x2,10_12 0
x2,10_17 0
x2,10_18 0
x2,10_21 0
x2,10_22 0
x2,10_30 0
x2,10_35 0
x2,10_38 0
x2,10_39 0
x2,10_47 0
x2,10_56 0
x2,10_57 0
x2,10_68 0
x2,10_69 0
x2,11_1 0
x2,11_12 0
x2,11_17 0
x2,11_18 0
x2,11_21 0
x2,11_22 0
x2,11_30 0
x2,11_35 0
x2,11_38 0
x2,11_39 0
x2,11_47 0
x2,11_56 0
x2,11_57 0
x2,11_68 0
x2,11_69 0
x2,12_1 0
x2,12_12 0
x2,12_17 0
x2,12_18 0
x2,12_21 0
x2,12_22 0
x2,12_30 0
x2,12_35 0
x2,12_38 0
x2,12_39 0
x2,12_47 0
x2,12_56 0
x2,12_57 0
x2,12_68 0
x2,12_69 0
x2,13_1 0
x2,13_12 0
x2,13_17 0
x2,13_18 0
x2,13_21 0
x2,13_22 0
x2,13_30 0
x2,13_35 0
x2,13_38 0
x2,13_39 0
x2,13_47 0
x2,13_56 0
x2,13_57 0
x2,13_68 0
x2,13_69 0
x2,14_1 0
x2,14_12 0
x2,14_17 0
x2,14_18 0
x2,14_21 0
x2,14_22 0
x2,14_30 0
x2,14_35 0
x2,14_38 0
x2,14_39 0
x2,14_47 0
x2,14_56 0
x2,14_57 0
x2,14_68 0
x2,14_69 0
x2,15_1 0
x2,15_12 0
x2,15_17 0
x2,15_18 0
x2,15_21 0
x2,15_22 0
x2,15_30 0
x2,15_35 0
x2,15_38 0
x2,15_39 0
x2,15_47 0
x2,15_56 0
x2,15_57 0
x2,15_68 0
x2,15_69 0
x3,4_1 0
x3,4_12 0
x3,4_17 0
x3,4_18 1
x3,4_21 0
x3,4_22 0
x3,4_30 0
x3,4_35 0
x3,4_38 0
x3,4_39 0
x3,4_47 0
x3,4_56 0
x3,4_57 0
x3,4_68 0
x3,4_69 0
x3,5_1 0
x3,5_12 0
x3,5_17 0
x3,5_18 0
x3,5_21 0
x3,5_22 0
x3,5_30 1
x3,5_35 0
x3,5_38 0
x3,5_39 0
x3,5_47 0
x3,5_56 0
x3,5_57 0
x3,5_68 0
x3,5_69 0
x3,6_1 0
x3,6_12 0
x3,6_17 0
x3,6_18 0
x3,6_21 0
x3,6_22 0
x3,6_30 0
x3,6_35 0
x3,6_38 0
x3,6_39 0
x3,6_47 0
x3,6_56 0
x3,6_57 0
x3,6_68 0
x3,6_69 0
x3,7_1 0
x3,7_12 0
x3,7_17 0
x3,7_18 0
x3,7_21 0
x3,7_22 0
x3,7_30 0
x3,7_35 0
x3,7_38 0
x3,7_39 0
x3,7_47 0
x3,7_56 0
x3,7_57 0
x3,7_68 0
x3,7_69 0
x3,8_1 0
x3,8_12 0
x3,8_17 0
x3,8_18 0
x3,8_21 0
x3,8_22 0
x3,8_30 0
x3,8_35 0
x3,8_38 0
x3,8_39 0
x3,8_47 0
x3,8_56 0
x3,8_57 0
x3,8_68 0
x3,8_69 0
x3,9_1 0
x3,9_12 0
x3,9_17 0
x3,9_18 0
x3,9_21 0
x3,9_22 0
x3,9_30 0
x3,9_35 0
x3,9_38 0
x3,9_39 0
x3,9_47 0
x3,9_56 0
x3,9_57 0
x3,9_68 0
x3,9_69 0
x3,10_1 0
x3,10_12 0
x3,10_17 0
x3,10_18 0
x3,10_21 0
x3,10_22 0
x3,10_30 0
x3,10_35 0
x3,10_38 0
x3,10_39 0
x3,10_47 0
x3,10_56 0
x3,10_57 0
x3,10_68 0
x3,10_69 0
x3,11_1 0
x3,11_12 0
x3,11_17 0
x3,11_18 0
x3,11_21 0
x3,11_22 0
x3,11_30 0
x3,11_35 0
x3,11_38 0
x3,11_39 0
x3,11_47 0
x3,11_56 0
x3,11_57 0
x3,11_68 0
x3,11_69 0
x3,12_1 0
x3,12_12 0
x3,12_17 0
x3,12_18 0
x3,12_21 0
x3,12_22 0
x3,12_30 0
x3,12_35 0
x3,12_38 0
x3,12_39 0
x3,12_47 0
x3,12_56 0
x3,12_57 0
x3,12_68 0
x3,12_69 0
x3,13_1 0
x3,13_12 0
x3,13_17 0
x3,13_18 0
x3,13_21 0
x3,13_22 0
x3,13_30 0
x3,13_35 0
x3,13_38 0
x3,13_39 0
x3,13_47 0
x3,13_56 0
x3,13_57 0
x3,13_68 0
x3,13_69 0
x3,14_1 0
x3,14_12 0
x3,14_17 0
x3,14_18 0
x3,14_21 0
x3,14_22 0
x3,14_30 0
x3,14_35 0
x3,14_38 0
x3,14_39 0
x3,14_47 0
x3,14_56 0
x3,14_57 0
x3,14_68 0
x3,14_69 0
x3,15_1 0
x3,15_12 0
x3,15_17 0
x3,15_18 0
x3,15_21 0
x3,15_22 0
x3,15_30 0
x3,15_35 0
x3,15_38 0
x3,15_39 0
x3,15_47 0
x3,15_56 0
x3,15_57 0
x3,15_68 0
x3,15_69 0
x4,5_1 0
x4,5_12 1
x4,5_17 0
x4,5_18 0
x4,5_21 0
x4,5_22 0
x4,5_30 0
x4,5_35 0
x4,5_38 0
x4,5_39 0
x4,5_47 0
x4,5_56 0
x4,5_57 0
x4,5_68 0
x4,5_69 0
x4,6_1 0
x4,6_12 0
x4,6_17 0
x4,6_18 0
x4,6_21 0
x4,6_22 0
x4,6_30 0
x4,6_35 0
x4,6_38 0
x4,6_39 0
x4,6_47 0
x4,6_56 0
x4,6_57 0
x4,6_68 0
x4,6_69 0
x4,7_1 0
x4,7_12 0
x4,7_17 0
x4,7_18 0
x4,7_21 0
x4,7_22 0
x4,7_30 0
x4,7_35 0
x4,7_38 0
x4,7_39 0
x4,7_47 0
x4,7_56 0
x4,7_57 0
x4,7_68 0
x4,7_69 0
x4,8_1 0
x4,8_12 0
x4,8_17 0
x4,8_18 0
x4,8_21 0
x4,8_22 0
x4,8_30 0
x4,8_35 0
x4,8_38 0
x4,8_39 0
x4,8_47 0
x4,8_56 0
x4,8_57 0
x4,8_68 0
x4,8_69 0
x4,9_1 0
x4,9_12 0
x4,9_17 0
x4,9_18 0
x4,9_21 0
x4,9_22 0
x4,9_30 0
x4,9_35 0
x4,9_38 0
x4,9_39 0
x4,9_47 0
x4,9_56 0
x4,9_57 0
x4,9_68 0
x4,9_69 0
x4,10_1 0
x4,10_12 0
x4,10_17 0
x4,10_18 0
x4,10_21 0
x4,10_22 0
x4,10_30 0
x4,10_35 0
x4,10_38 0
x4,10_39 0
x4,10_47 0
x4,10_56 0
x4,10_57 0
x4,10_68 0
x4,10_69 0
x4,11_1 0
x4,11_12 0
x4,11_17 0
x4,11_18 0
x4,11_21 0
x4,11_22 0
x4,11_30 0
x4,11_35 0
x4,11_38 0
x4,11_39 0
x4,11_47 0
x4,11_56 0
x4,11_57 0
x4,11_68 0
x4,11_69 0
x4,12_1 0
x4,12_12 0
x4,12_17 0
x4,12_18 0
x4,12_21 0
x4,12_22 0
x4,12_30 0
x4,12_35 0
x4,12_38 0
x4,12_39 0
x4,12_47 0
x4,12_56 0
x4,12_57 0
x4,12_68 0
x4,12_69 0
x4,13_1 0
x4,13_12 0
x4,13_17 0
x4,13_18 0
x4,13_21 0
x4,13_22 0
x4,13_30 0
x4,13_35 0
x4,13_38 0
x4,13_39 0
x4,13_47 0
x4,13_56 0
x4,13_57 0
x4,13_68 0
x4,13_69 0
x4,14_1 0
x4,14_12 0
x4,14_17 0
x4,14_18 0
x4,14_21 0
x4,14_22 0
x4,14_30 0
x4,14_35 0
x4,14_38 0
x4,14_39 0
x4,14_47 0
x4,14_56 0
x4,14_57 0
x4,14_68 0
x4,14_69 0
x4,15_1 0
x4,15_12 0
x4,15_17 0
x4,15_18 0
x4,15_21 0
x4,15_22 0
x4,15_30 0
x4,15_35 0
x4,15_38 0
x4,15_39 0
x4,15_47 0
x4,15_56 0
x4,15_57 0
x4,15_68 0
x4,15_69 0
x5,6_1 0
x5,6_12 0
x5,6_17 0
x5,6_18 0
x5,6_21 0
x5,6_22 0
x5,6_30 0
x5,6_35 0
x5,6_38 0
x5,6_39 0
x5,6_47 0
x5,6_56 0
x5,6_57 0
x5,6_68 0
x5,6_69 0
x5,7_1 0
x5,7_12 0
x5,7_17 0
x5,7_18 0
x5,7_21 0
x5,7_22 0
x5,7_30 0
x5,7_35 0
x5,7_38 0
x5,7_39 0
x5,7_47 0
x5,7_56 0
x5,7_57 0
x5,7_68 0
x5,7_69 0
x5,8_1 0
x5,8_12 0
x5,8_17 0
x5,8_18 0
x5,8_21 0
x5,8_22 0
x5,8_30 0
x5,8_35 0
x5,8_38 0
x5,8_39 0
x5,8_47 0
x5,8_56 0
x5,8_57 0
x5,8_68 0
x5,8_69 0
x5,9_1 0
x5,9_12 0
x5,9_17 0
x5,9_18 0
x5,9_21 0
x5,9_22 0
x5,9_30 0
x5,9_35 0
x5,9_38 0
x5,9_39 0
x5,9_47 0
x5,9_56 0
x5,9_57 0
x5,9_68 0
x5,9_69 0
x5,10_1 0
x5,10_12 0
x5,10_17 0
x5,10_18 0
x5,10_21 0
x5,10_22 0
x5,10_30 0
x5,10_35 0
x5,10_38 0
x5,10_39 0
x5,10_47 0
x5,10_56 0
x5,10_57 0
x5,10_68 0
x5,10_69 0
x5,11_1 0
x5,11_12 0
x5,11_17 0
x5,11_18 0
x5,11_21 0
x5,11_22 0
x5,11_30 0
x5,11_35 0
x5,11_38 0
x5,11_39 0
x5,11_47 0
x5,11_56 0
x5,11_57 0
x5,11_68 0
x5,11_69 0
x5,12_1 0
x5,12_12 0
x5,12_17 0
x5,12_18 0
x5,12_21 0
x5,12_22 0
x5,12_30 0
x5,12_35 0
x5,12_38 0
x5,12_39 0
x5,12_47 0
x5,12_56 0
x5,12_57 0
x5,12_68 0
x5,12_69 0
x5,13_1 0
x5,13_12 0
x5,13_17 0
x5,13_18 0
x5,13_21 0
x5,13_22 0
x5,13_30 0
x5,13_35 0
x5,13_38 0
x5,13_39 0
x5,13_47 0
x5,13_56 0
x5,13_57 0
x5,13_68 0
x5,13_69 0
x5,14_1 0
x5,14_12 0
x5,14_17 0
x5,14_18 0
x5,14_21 0
x5,14_22 0
x5,14_30 0
x5,14_35 0
x5,14_38 0
x5,14_39 0
x5,14_47 0
x5,14_56 0
x5,14_57 0
x5,14_68 0
x5,14_69 0
x5,15_1 0
x5,15_12 0
x5,15_17 0
x5,15_18 0
x5,15_21 0
x5,15_22 0
x5,15_30 0
x5,15_35 0
x5,15_38 0
x5,15_39 0
x5,15_47 0
x5,15_56 0
x5,15_57 0
x5,15_68 0
x5,15_69 0
x6,7_1 0
x6,7_12 0
x6,7_17 0
x6,7_18 0
x6,7_21 0
x6,7_22 0
x6,7_30 0
x6,7_35 0
x6,7_38 0
x6,7_39 0
x6,7_47 0
x6,7_56 0
x6,7_57 0
x6,7_68 0
x6,7_69 0
x6,8_1 0
x6,8_12 0
x6,8_17 0
x6,8_18 0
x6,8_21 0
x6,8_22 0
x6,8_30 0
x6,8_35 0
x6,8_38 0
x6,8_39 0
x6,8_47 0
x6,8_56 0
x6,8_57 0
x6,8_68 0
x6,8_69 0
x6,9_1 0
x6,9_12 0
x6,9_17 0
x6,9_18 0
x6,9_21 0
x6,9_22 0
x6,9_30 0
x6,9_35 0
x6,9_38 0
x6,9_39 0
x6,9_47 0
x6,9_56 0
x6,9_57 0
x6,9_68 0
x6,9_69 0
x6,10_1 0
x6,10_12 0
x6,10_17 0
x6,10_18 0
x6,10_21 0
x6,10_22 0
x6,10_30 0
x6,10_35 0
x6,10_38 0
x6,10_39 0
x6,10_47 0
x6,10_56 0
x6,10_57 0
x6,10_68 0
x6,10_69 0
x6,11_1 0
x6,11_12 0
x6,11_17 0
x6,11_18 0
x6,11_21 0
x6,11_22 0
x6,11_30 0
x6,11_35 0
x6,11_38 0
x6,11_39 0
x6,11_47 0
x6,11_56 0
x6,11_57 0
x6,11_68 0
x6,11_69 0
x6,12_1 0
x6,12_12 0
x6,12_17 0
x6,12_18 0
x6,12_21 0
x6,12_22 0
x6,12_30 0
x6,12_35 0
x6,12_38 0
x6,12_39 0
x6,12_47 0
x6,12_56 0
x6,12_57 0
x6,12_68 0
x6,12_69 0
x6,13_1 0
x6,13_12 0
x6,13_17 0
x6,13_18 0
x6,13_21 0
x6,13_22 0
x6,13_30 0
x6,13_35 0
x6,13_38 0
x6,13_39 0
x6,13_47 0
x6,13_56 0
x6,13_57 0
x6,13_68 0
x6,13_69 0
x6,14_1 0
x6,14_12 0
x6,14_17 0
x6,14_18 0
x6,14_21 0
x6,14_22 0
x6,14_30 0
x6,14_35 0
x6,14_38 0
x6,14_39 0
x6,14_47 0
x6,14_56 0
x6,14_57 0
x6,14_68 0
x6,14_69 0
x6,15_1 0
x6,15_12 0
x6,15_17 0
x6,15_18 0
x6,15_21 0
x6,15_22 0
x6,15_30 0
x6,15_35 0
x6,15_38 0
x6,15_39 0
x6,15_47 0
x6,15_56 0
x6,15_57 0
x6,15_68 0
x6,15_69 0
x7,8_1 0
x7,8_12 0
x7,8_17 0
x7,8_18 0
x7,8_21 0
x7,8_22 0
x7,8_30 0
x7,8_35 0
x7,8_38 0
x7,8_39 0
x7,8_47 0
x7,8_56 0
x7,8_57 0
x7,8_68 0
x7,8_69 0
x7,9_1 0
x7,9_12 0
x7,9_17 0
x7,9_18 0
x7,9_21 0
x7,9_22 0
x7,9_30 0
x7,9_35 0
x7,9_38 0
x7,9_39 0
x7,9_47 0
x7,9_56 0
x7,9_57 0
x7,9_68 0
x7,9_69 0
x7,10_1 0
x7,10_12 0
x7,10_17 0
x7,10_18 0
x7,10_21 0
x7,10_22 0
x7,10_30 0
x7,10_35 0
x7,10_38 0
x7,10_39 0
x7,10_47 0
x7,10_56 0
x7,10_57 0
x7,10_68 0
x7,10_69 0
x7,11_1 0
x7,11_12 0
x7,11_17 0
x7,11_18 0
x7,11_21 0
x7,11_22 0
x7,11_30 0
x7,11_35 0
x7,11_38 0
x7,11_39 0
x7,11_47 0
x7,11_56 0
x7,11_57 0
x7,11_68 0
x7,11_69 0
x7,12_1 0
x7,12_12 0
x7,12_17 0
x7,12_18 0
x7,12_21 0
x7,12_22 0
x7,12_30 0
x7,12_35 0
x7,12_38 0
x7,12_39 0
x7,12_47 0
x7,12_56 0
x7,12_57 0
x7,12_68 0
x7,12_69 0
x7,13_1 0
x7,13_12 0
x7,13_17 0
x7,13_18 0
x7,13_21 0
x7,13_22 0
x7,13_30 0
x7,13_35 0
x7,13_38 0
x7,13_39 0
x7,13_47 0
x7,13_56 0
x7,13_57 0
x7,13_68 0
x7,13_69 0
x7,14_1 0
x7,14_12 0
x7,14_17 0
x7,14_18 0
x7,14_21 0
x7,14_22 0
x7,14_30 0
x7,14_35 0
x7,14_38 0
x7,14_39 0
x7,14_47 0
x7,14_56 0
x7,14_57 0
x7,14_68 0
x7,14_69 0
x7,15_1 0
x7,15_12 0
x7,15_17 0
x7,15_18 0
x7,15_21 0
x7,15_22 0
x7,15_30 0
x7,15_35 0
x7,15_38 0
x7,15_39 0
x7,15_47 0
x7,15_56 0
x7,15_57 0
x7,15_68 0
x7,15_69 0
x8,9_1 0
x8,9_12 0
x8,9_17 0
x8,9_18 0
x8,9_21 0
x8,9_22 0
x8,9_30 0
x8,9_35 0
x8,9_38 0
x8,9_39 0
x8,9_47 0
x8,9_56 0
x8,9_57 0
x8,9_68 0
x8,9_69 0
x8,10_1 0
x8,10_12 0
x8,10_17 0
x8,10_18 0
x8,10_21 0
x8,10_22 0
x8,10_30 0
x8,10_35 0
x8,10_38 0
x8,10_39 0
x8,10_47 0
x8,10_56 0
x8,10_57 0
x8,10_68 0
x8,10_69 0
x8,11_1 0
x8,11_12 0
x8,11_17 0
x8,11_18 0
x8,11_21 0
x8,11_22 0
x8,11_30 0
x8,11_35 0
x8,11_38 0
x8,11_39 0
x8,11_47 0
x8,11_56 0
x8,11_57 0
x8,11_68 0
x8,11_69 0
x8,12_1 0
x8,12_12 0
x8,12_17 0
x8,12_18 0
x8,12_21 0
x8,12_22 0
x8,12_30 0
x8,12_35 0
x8,12_38 0
x8,12_39 0
x8,12_47 0
x8,12_56 0
x8,12_57 0
x8,12_68 0
x8,12_69 0
x8,13_1 0
x8,13_12 0
x8,13_17 0
x8,13_18 0
x8,13_21 0
x8,13_22 0
x8,13_30 0
x8,13_35 0
x8,13_38 0
x8,13_39 0
x8,13_47 0
x8,13_56 0
x8,13_57 0
x8,13_68 0
x8,13_69 0
x8,14_1 0
x8,14_12 0
x8,14_17 0
x8,14_18 0
x8,14_21 0
x8,14_22 0
x8,14_30 0
x8,14_35 0
x8,14_38 0
x8,14_39 0
x8,14_47 0
x8,14_56 0
x8,14_57 0
x8,14_68 0
x8,14_69 0
x8,15_1 0
x8,15_12 0
x8,15_17 0
x8,15_18 0
x8,15_21 0
x8,15_22 0
x8,15_30 0
x8,15_35 0
x8,15_38 0
x8,15_39 0
x8,15_47 0
x8,15_56 0
x8,15_57 0
x8,15_68 0
x8,15_69 0
x9,10_1 0
x9,10_12 0
x9,10_17 0
x9,10_18 0
x9,10_21 0
x9,10_22 0
x9,10_30 0
x9,10_35 0
x9,10_38 0
x9,10_39 0
x9,10_47 0
x9,10_56 0
x9,10_57 0
x9,10_68 0
x9,10_69 0
x9,11_1 0
x9,11_12 0
x9,11_17 0
x9,11_18 0
x9,11_21 0
x9,11_22 0
x9,11_30 0
x9,11_35 0
x9,11_38 0
x9,11_39 0
x9,11_47 0
x9,11_56 0
x9,11_57 0
x9,11_68 0
x9,11_69 0
x9,12_1 0
x9,12_12 0
x9,12_17 0
x9,12_18 0
x9,12_21 0
x9,12_22 0
x9,12_30 0
x9,12_35 0
x9,12_38 0
x9,12_39 0
x9,12_47 0
x9,12_56 0
x9,12_57 0
x9,12_68 0
x9,12_69 0
x9,13_1 0
x9,13_12 0
x9,13_17 0
x9,13_18 0
x9,13_21 0
x9,13_22 0
x9,13_30 0
x9,13_35 0
x9,13_38 0
x9,13_39 0
x9,13_47 0
x9,13_56 0
x9,13_57 0
x9,13_68 0
x9,13_69 0
x9,14_1 0
x9,14_12 0
x9,14_17 0
x9,14_18 0
x9,14_21 0
x9,14_22 0
x9,14_30 0
x9,14_35 0
x9,14_38 0
x9,14_39 0
x9,14_47 0
x9,14_56 0
x9,14_57 0
x9,14_68 0
x9,14_69 0
x9,15_1 0
x9,15_12 0
x9,15_17 0
x9,15_18 0
x9,15_21 0
x9,15_22 0
x9,15_30 0
x9,15_35 0
x9,15_38 0
x9,15_39 0
x9,15_47 0
x9,15_56 0
x9,15_57 0
x9,15_68 0
x9,15_69 0
x10,11_1 0
x10,11_12 0
x10,11_17 0
x10,11_18 0
x10,11_21 0
x10,11_22 0
x10,11_30 0
x10,11_35 0
x10,11_38 0
x10,11_39 0
x10,11_47 0
x10,11_56 0
x10,11_57 0
x10,11_68 0
x10,11_69 0
x10,12_1 0
x10,12_12 0
x10,12_17 0
x10,12_18 0
x10,12_21 0
x10,12_22 0
x10,12_30 0
x10,12_35 0
x10,12_38 0
x10,12_39 0
x10,12_47 0
x10,12_56 0
x10,12_57 0
x10,12_68 0
x10,12_69 0
x10,13_1 0
x10,13_12 0
x10,13_17 0
x10,13_18 0
x10,13_21 0
x10,13_22 0
x10,13_30 0
x10,13_35 0
x10,13_38 0
x10,13_39 0
x10,13_47 0
x10,13_56 0
x10,13_57 0
x10,13_68 0
x10,13_69 0
x10,14_1 0
x10,14_12 0
x10,14_17 0
x10,14_18 0
x10,14_21 0
x10,14_22 0
x10,14_30 0
x10,14_35 0
x10,14_38 0
x10,14_39 0
x10,14_47 0
x10,14_56 0
x10,14_57 0
x10,14_68 0
x10,14_69 0
x10,15_1 0
x10,15_12 0
x10,15_17 0
x10,15_18 0
x10,15_21 0
x10,15_22 0
x10,15_30 0
x10,15_35 0
x10,15_38 0
x10,15_39 0
x10,15_47 0
x10,15_56 0
x10,15_57 0
x10,15_68 0
x10,15_69 0
x11,12_1 0
x11,12_12 0
x11,12_17 0
x11,12_18 0
x11,12_21 0
x11,12_22 0
x11,12_30 0
x11,12_35 0
x11,12_38 0
x11,12_39 0
x11,12_47 0
x11,12_56 0
x11,12_57 0
x11,12_68 0
x11,12_69 0
x11,13_1 0
x11,13_12 0
x11,13_17 0
x11,13_18 0
x11,13_21 0
x11,13_22 0
x11,13_30 0
x11,13_35 0
x11,13_38 0
x11,13_39 0
x11,13_47 0
x11,13_56 0
x11,13_57 0
x11,13_68 0
x11,13_69 0
x11,14_1 0
x11,14_12 0
x11,14_17 0
x11,14_18 0
x11,14_21 0
x11,14_22 0
x11,14_30 0
x11,14_35 0
x11,14_38 0
x11,14_39 0
x11,14_47 0
x11,14_56 0
x11,14_57 0
x11,14_68 0
x11,14_69 0
x11,15_1 0
x11,15_12 0
x11,15_17 0
x11,15_18 0
x11,15_21 0
x11,15_22 0
x11,15_30 0
x11,15_35 0
x11,15_38 0
x11,15_39 0
x11,15_47 0
x11,15_56 0
x11,15_57 0
x11,15_68 0
x11,15_69 0
x12,13_1 0
x12,13_12 0
x12,13_17 0
x12,13_18 0
x12,13_21 0
x12,13_22 0
x12,13_30 0
x12,13_35 0
x12,13_38 0
x12,13_39 0
x12,13_47 0
x12,13_56 0
x12,13_57 0
x12,13_68 0
x12,13_69 0
x12,14_1 0
x12,14_12 0
x12,14_17 0
x12,14_18 0
x12,14_21 0
x12,14_22 0
x12,14_30 0
x12,14_35 0
x12,14_38 0
x12,14_39 0
x12,14_47 0
x12,14_56 0
x12,14_57 0
x12,14_68 0
x12,14_69 0
x12,15_1 0
x12,15_12 0
x12,15_17 0
x12,15_18 0
x12,15_21 0
x12,15_22 0
x12,15_30 0
x12,15_35 0
x12,15_38 0
x12,15_39 0
x12,15_47 0
x12,15_56 0
x12,15_57 0
x12,15_68 0
x12,15_69 0
x13,14_1 0
x13,14_12 0
x13,14_17 0
x13,14_18 0
x13,14_21 0
x13,14_22 0
x13,14_30 0
x13,14_35 0
x13,14_38 0
x13,14_39 0
x13,14_47 0
x13,14_56 0
x13,14_57 0
x13,14_68 0
x13,14_69 0
x13,15_1 0
x13,15_12 0
x13,15_17 0
x13,15_18 0
x13,15_21 0
x13,15_22 0
x13,15_30 0
x13,15_35 0
x13,15_38 0
x13,15_39 0
x13,15_47 0
x13,15_56 0
x13,15_57 0
x13,15_68 0
x13,15_69 0
x14,15_1 0
x14,15_12 0
x14,15_17 0
x14,15_18 0
x14,15_21 0
x14,15_22 0
x14,15_30 0
x14,15_35 0
x14,15_38 0
x14,15_39 0
x14,15_47 0
x14,15_56 0
x14,15_57 0
x14,15_68 0
x14,15_69 0
z0 1
z1 1
z2 1
z3 1
z4 1
z5 1
z6 0
z7 0
z8 0
z9 0
z10 0
z11 0
z12 0
z13 0
z14 0
z15 0
p0 0
p1 1
p2 22
p3 39
p4 57
p5 69
p6 74
p7 92
p8 524
p9 525
p10 526
p11 527
p12 528
p13 529
p14 530
p15 531
